c uprop, v00.0, 
c reading from data/prog286.c.cnf
c done reading: 0.00363
p cnf 140 630
-45 -66 0
-45 -62 0
45 62 66 0
-39 62 66 0
-39 -62 -66 0
39 62 -66 0
39 -62 66 0
45 -57 0
-55 -57 0
-45 55 57 0
-45 -50 55 0
45 -50 -55 0
45 50 55 0
-45 50 -55 0
-46 57 0
-43 -46 0
43 46 -57 0
-41 43 -57 0
-41 -43 57 0
41 43 57 0
41 -43 -57 0
-40 46 0
-37 -40 0
37 40 -46 0
37 -46 -64 0
-37 46 -64 0
37 46 64 0
-37 -46 64 0
40 -68 0
-59 -68 0
-40 59 68 0
-40 59 -69 0
40 -59 -69 0
40 59 69 0
-40 -59 69 0
68 -70 0
-52 -70 0
52 -68 70 0
52 -68 -71 0
-52 68 -71 0
52 68 71 0
-52 -68 71 0
70 -72 0
-48 -72 0
48 -70 72 0
48 -70 -73 0
-48 70 -73 0
48 70 73 0
-48 -70 73 0
62 -74 0
66 -74 0
-62 -66 74 0
-62 -66 -75 0
62 66 -75 0
-62 66 75 0
62 -66 75 0
-55 -62 76 0
-55 -74 76 0
-62 -74 76 0
55 62 -76 0
55 74 -76 0
62 74 -76 0
55 -76 -77 0
62 -76 -77 0
74 -76 -77 0
-55 76 77 0
-62 76 77 0
-74 76 77 0
-55 -62 -74 77 0
55 62 74 -77 0
-43 -55 78 0
-43 -76 78 0
-55 -76 78 0
43 55 -78 0
43 76 -78 0
55 76 -78 0
43 -78 -79 0
55 -78 -79 0
76 -78 -79 0
-43 78 79 0
-55 78 79 0
-76 78 79 0
-43 -55 -76 79 0
43 55 76 -79 0
-37 -43 80 0
-37 -78 80 0
-43 -78 80 0
37 43 -80 0
37 78 -80 0
43 78 -80 0
-35 37 -80 0
-35 43 -80 0
-35 78 -80 0
35 -37 80 0
35 -43 80 0
35 -78 80 0
35 -37 -43 -78 0
-35 37 43 78 0
34 -37 -59 0
34 -59 -80 0
34 -37 -80 0
-34 37 59 0
-34 59 80 0
-34 37 80 0
-33 -34 59 0
-33 -34 37 0
-33 -34 80 0
33 34 -59 0
33 34 -37 0
33 34 -80 0
33 -37 -59 -80 0
-33 37 59 80 0
32 -52 -59 0
32 -34 -52 0
32 -34 -59 0
-32 52 59 0
-32 34 52 0
-32 34 59 0
-31 -32 52 0
-31 -32 59 0
-31 -32 34 0
31 32 -52 0
31 32 -59 0
31 32 -34 0
31 -34 -52 -59 0
-31 34 52 59 0
30 -48 -52 0
30 -32 -48 0
30 -32 -52 0
-30 48 52 0
-30 32 48 0
-30 32 52 0
-30 48 -65 0
-30 52 -65 0
-30 32 -65 0
30 -48 65 0
30 -52 65 0
30 -32 65 0
-32 -48 -52 65 0
32 48 52 -65 0
48 -61 0
30 -61 0
-30 -48 61 0
-30 -48 -54 0
30 48 -54 0
30 -48 54 0
-30 48 54 0
-42 77 0
-42 66 0
42 -66 -77 0
-36 -66 -77 0
-36 66 77 0
36 66 -77 0
36 -66 77 0
58 -62 -79 0
-42 58 -79 0
-42 58 -62 0
-58 62 79 0
42 -58 79 0
42 -58 62 0
-51 -58 79 0
-51 -58 62 0
42 -51 -58 0
51 58 -79 0
51 58 -62 0
-42 51 58 0
-42 51 -62 -79 0
42 -51 62 79 0
-35 47 -55 0
-35 47 -58 0
47 -55 -58 0
35 -47 55 0
35 -47 58 0
-47 55 58 0
-29 35 -47 0
-29 -47 55 0
-29 -47 58 0
29 -35 47 0
29 47 -55 0
29 47 -58 0
29 -35 -55 -58 0
-29 35 55 58 0
28 -33 -43 0
28 -33 -47 0
28 -43 -47 0
-28 33 43 0
-28 33 47 0
-28 43 47 0
-27 -28 33 0
-27 -28 43 0
-27 -28 47 0
27 28 -33 0
27 28 -43 0
27 28 -47 0
27 -33 -43 -47 0
-27 33 43 47 0
26 -31 -37 0
26 -28 -31 0
26 -28 -37 0
-26 31 37 0
-26 28 31 0
-26 28 37 0
-25 -26 31 0
-25 -26 37 0
-25 -26 28 0
25 26 -31 0
25 26 -37 0
25 26 -28 0
25 -28 -31 -37 0
-25 28 31 37 0
24 -59 -65 0
24 -26 -65 0
24 -26 -59 0
-24 59 65 0
-24 26 65 0
-24 26 59 0
-23 -24 65 0
-23 -24 59 0
-23 -24 26 0
23 24 -65 0
23 24 -59 0
23 24 -26 0
23 -26 -59 -65 0
-23 26 59 65 0
22 -52 -54 0
22 -24 -54 0
22 -24 -52 0
-22 52 54 0
-22 24 54 0
-22 24 52 0
-21 -22 54 0
-21 -22 52 0
-21 -22 24 0
21 22 -54 0
21 22 -52 0
21 22 -24 0
21 -24 -52 -54 0
-21 24 52 54 0
20 -48 -61 0
20 -22 -61 0
20 -22 -48 0
-20 48 61 0
-20 22 61 0
-20 22 48 0
-19 -20 61 0
-19 -20 48 0
-19 -20 22 0
19 20 -61 0
19 20 -48 0
19 20 -22 0
19 -22 -48 -61 0
-19 22 48 61 0
-18 -66 0
-18 -75 0
18 66 75 0
-17 66 75 0
-17 -66 -75 0
17 -66 75 0
17 66 -75 0
-16 18 0
-16 -36 0
16 -18 36 0
-15 -18 36 0
-15 18 -36 0
15 18 36 0
15 -18 -36 0
-14 16 0
-14 -51 0
14 -16 51 0
-16 51 -81 0
16 -51 -81 0
16 51 81 0
-16 -51 81 0
14 -82 0
-29 -82 0
-14 29 82 0
-14 29 -83 0
14 -29 -83 0
14 29 83 0
-14 -29 83 0
82 -84 0
-27 -84 0
27 -82 84 0
27 -82 -85 0
-27 82 -85 0
27 82 85 0
-27 -82 85 0
84 -86 0
-25 -86 0
25 -84 86 0
25 -84 -87 0
-25 84 -87 0
25 84 87 0
-25 -84 87 0
86 -88 0
-23 -88 0
23 -86 88 0
23 -86 -89 0
-23 86 -89 0
23 86 89 0
-23 -86 89 0
88 -90 0
-21 -90 0
21 -88 90 0
21 -88 -91 0
-21 88 -91 0
21 88 91 0
-21 -88 91 0
90 -92 0
-19 -92 0
19 -90 92 0
19 -90 -93 0
-19 90 -93 0
19 90 93 0
-19 -90 93 0
92 -94 0
-20 -94 0
20 -92 94 0
20 -92 -95 0
-20 92 -95 0
20 92 95 0
-20 -92 95 0
-96 -98 0
-98 -99 0
96 98 99 0
96 99 -101 0
-96 -99 -101 0
-96 99 101 0
96 -99 101 0
98 -102 0
-102 -103 0
-98 102 103 0
-98 103 -105 0
98 -103 -105 0
98 103 105 0
-98 -103 105 0
102 -106 0
-106 -107 0
-102 106 107 0
-102 107 -109 0
102 -107 -109 0
102 107 109 0
-102 -107 109 0
106 -110 0
-110 -111 0
-106 110 111 0
-106 111 -113 0
106 -111 -113 0
106 111 113 0
-106 -111 113 0
110 -114 0
-114 -115 0
-110 114 115 0
-110 115 -117 0
110 -115 -117 0
110 115 117 0
-110 -115 117 0
114 -118 0
-118 -119 0
-114 118 119 0
-114 119 -121 0
114 -119 -121 0
114 119 121 0
-114 -119 121 0
118 -122 0
-122 -123 0
-118 122 123 0
-118 123 -125 0
118 -123 -125 0
118 123 125 0
-118 -123 125 0
99 -126 0
96 -126 0
-96 -99 126 0
-96 -99 -127 0
96 99 -127 0
96 -99 127 0
-96 99 127 0
-99 -103 128 0
-103 -126 128 0
-99 -126 128 0
99 103 -128 0
103 126 -128 0
99 126 -128 0
103 -128 -129 0
99 -128 -129 0
126 -128 -129 0
-103 128 129 0
-99 128 129 0
-126 128 129 0
-99 -103 -126 129 0
99 103 126 -129 0
-103 -107 130 0
-107 -128 130 0
-103 -128 130 0
103 107 -130 0
107 128 -130 0
103 128 -130 0
107 -130 -131 0
103 -130 -131 0
128 -130 -131 0
-107 130 131 0
-103 130 131 0
-128 130 131 0
-103 -107 -128 131 0
103 107 128 -131 0
-107 -111 132 0
-111 -130 132 0
-107 -130 132 0
107 111 -132 0
111 130 -132 0
107 130 -132 0
111 -132 -133 0
107 -132 -133 0
130 -132 -133 0
-111 132 133 0
-107 132 133 0
-130 132 133 0
-107 -111 -130 133 0
107 111 130 -133 0
-111 -115 134 0
-115 -132 134 0
-111 -132 134 0
111 115 -134 0
115 132 -134 0
111 132 -134 0
115 -134 -135 0
111 -134 -135 0
132 -134 -135 0
-115 134 135 0
-111 134 135 0
-132 134 135 0
-111 -115 -132 135 0
111 115 132 -135 0
-115 -119 136 0
-119 -134 136 0
-115 -134 136 0
115 119 -136 0
119 134 -136 0
115 134 -136 0
119 -136 -137 0
115 -136 -137 0
134 -136 -137 0
-119 136 137 0
-115 136 137 0
-134 136 137 0
-115 -119 -134 137 0
115 119 134 -137 0
-119 -123 138 0
-123 -136 138 0
-119 -136 138 0
119 123 -138 0
123 136 -138 0
119 136 -138 0
123 -138 -139 0
119 -138 -139 0
136 -138 -139 0
-123 138 139 0
-119 138 139 0
-136 138 139 0
-119 -123 -136 139 0
119 123 136 -139 0
123 -140 0
138 -140 0
-123 -138 140 0
-67 -123 -138 0
-67 123 138 0
67 -123 138 0
67 123 -138 0
-63 -96 0
-63 -127 0
63 96 127 0
-56 96 127 0
-56 -96 -127 0
56 -96 127 0
56 96 -127 0
-44 63 0
-44 -129 0
44 -63 129 0
-38 -63 129 0
-38 63 -129 0
38 63 129 0
38 -63 -129 0
44 -60 0
-60 -131 0
-44 60 131 0
-44 -53 131 0
44 -53 -131 0
44 53 131 0
-44 53 -131 0
-49 60 0
-49 -133 0
49 -60 133 0
-60 -97 133 0
60 -97 -133 0
60 97 133 0
-60 97 -133 0
49 -100 0
-100 -135 0
-49 100 135 0
-49 -104 135 0
49 -104 -135 0
49 104 135 0
-49 104 -135 0
100 -108 0
-108 -137 0
-100 108 137 0
-100 -112 137 0
100 -112 -137 0
100 112 137 0
-100 112 -137 0
108 -116 0
-116 -139 0
-108 116 139 0
-108 -120 139 0
108 -120 -139 0
108 120 139 0
-108 120 -139 0
116 -124 0
-67 -124 0
67 -116 124 0
-13 67 -116 0
-13 -67 116 0
13 67 116 0
13 -67 -116 0
-12 124 0
-12 -140 0
12 -124 140 0
-11 -124 140 0
-11 124 -140 0
11 124 140 0
11 -124 -140 0
-10 66 0
-10 96 0
10 -66 -96 0
-66 -96 0
66 96 0
9 -75 -127 0
9 -10 -75 0
9 -10 -127 0
-9 75 127 0
-9 10 75 0
-9 10 127 0
-9 75 0
-9 127 0
-9 10 0
10 75 127 0
8 -36 -129 0
8 -9 -36 0
8 -9 -129 0
-8 36 129 0
-8 9 36 0
-8 9 129 0
-8 36 0
-8 129 0
-8 9 0
9 36 129 0
7 -51 -131 0
7 -8 -51 0
7 -8 -131 0
-7 51 131 0
-7 8 51 0
-7 8 131 0
7 -51 0
7 -131 0
7 -8 0
-8 -51 -131 0
6 -29 -133 0
6 -7 -29 0
6 -7 -133 0
-6 29 133 0
-6 7 29 0
-6 7 133 0
6 -29 0
6 -133 0
6 -7 0
-7 -29 -133 0
5 -27 -135 0
5 -6 -27 0
5 -6 -135 0
-5 27 135 0
-5 6 27 0
-5 6 135 0
-5 27 0
-5 135 0
-5 6 0
6 27 135 0
4 -25 -137 0
4 -5 -25 0
4 -5 -137 0
-4 25 137 0
-4 5 25 0
-4 5 137 0
4 -25 0
4 -137 0
4 -5 0
-5 -25 -137 0
3 -23 -139 0
3 -4 -23 0
3 -4 -139 0
-3 23 139 0
-3 4 23 0
-3 4 139 0
3 -23 0
3 -139 0
3 -4 0
-4 -23 -139 0
2 -21 -67 0
2 -3 -21 0
2 -3 -67 0
-2 21 67 0
-2 3 21 0
-2 3 67 0
2 -21 0
2 -67 0
2 -3 0
-3 -21 -67 0
1 -19 -140 0
1 -2 -19 0
1 -2 -140 0
-1 19 140 0
-1 2 19 0
-1 2 140 0
1 -19 0
1 -140 0
1 -2 0
-2 -19 -140 0
-1 -20 0
1 -20 0
-1 20 0
